Translating instance to solver...

GLPSOL--GLPK LP/MIP Solver 5.0
Parameter(s) specified in the command line:
 --tmlim 28800 --mipgap 0.001 --write /tmp/tmppckj7lao.glpk.raw --wglp /tmp/tmpn3qsq66n.glpk.glp
 --cpxlp /tmp/tmp0jm3fldf.pyomo.lp
Reading problem data from '/tmp/tmp0jm3fldf.pyomo.lp'...
/tmp/tmp0jm3fldf.pyomo.lp:149016: warning: lower bound of variable 'x2' redefined
/tmp/tmp0jm3fldf.pyomo.lp:149016: warning: upper bound of variable 'x2' redefined
24926 rows, 13762 columns, 60383 non-zeros
13762 integer variables, 13740 of which are binary
162756 lines were read
Writing problem data to '/tmp/tmpn3qsq66n.glpk.glp'...
115229 lines were written
GLPK Integer Optimizer 5.0
24926 rows, 13762 columns, 60383 non-zeros
13762 integer variables, 13740 of which are binary
Preprocessing...
160 hidden packing inequaliti(es) were detected
3640 hidden covering inequaliti(es) were detected
100 constraint coefficient(s) were reduced
14816 rows, 6585 columns, 38573 non-zeros
6585 integer variables, 6564 of which are binary
Scaling...
 A: min|aij| =  1.000e+00  max|aij| =  3.400e+01  ratio =  3.400e+01
GM: min|aij| =  4.268e-01  max|aij| =  2.343e+00  ratio =  5.490e+00
EQ: min|aij| =  2.203e-01  max|aij| =  1.000e+00  ratio =  4.539e+00
2N: min|aij| =  1.250e-01  max|aij| =  1.438e+00  ratio =  1.150e+01
Constructing initial basis...
Size of triangular part is 14816
Solving LP relaxation...
GLPK Simplex Optimizer 5.0
14816 rows, 6585 columns, 38573 non-zeros
      0: obj =   0.000000000e+00 inf =   7.412e+01 (105)
Perturbing LP to avoid stalling [343]...
    863: obj =   3.338372005e+00 inf =   1.388e-16 (0) 3
Removing LP perturbation [1909]...
*  1909: obj =   1.393360947e+00 inf =   4.542e-14 (0) 6
OPTIMAL LP SOLUTION FOUND
Integer optimization begins...
Long-step dual simplex will be used
+  1909: mip =     not found yet >=              -inf        (1; 0)
+  4797: mip =     not found yet >=   1.404639143e+00        (58; 1)
+  6850: mip =     not found yet >=   1.433521130e+00        (125; 2)
+  8006: mip =     not found yet >=   1.438433758e+00        (203; 4)
+ 11521: mip =     not found yet >=   1.453086348e+00        (242; 6)
+ 15713: mip =     not found yet >=   1.458840824e+00        (308; 8)
+ 17918: >>>>>   1.823762000e+00 >=   1.458840824e+00  20.0% (350; 9)
+ 21284: mip =   1.823762000e+00 >=   1.464670833e+00  19.7% (179; 417)
+ 22944: mip =   1.823762000e+00 >=   1.464907000e+00  19.7% (211; 418)
+ 26583: mip =   1.823762000e+00 >=   1.474406164e+00  19.2% (244; 422)
+ 29395: mip =   1.823762000e+00 >=   1.478900691e+00  18.9% (275; 424)
+ 33114: mip =   1.823762000e+00 >=   1.484953235e+00  18.6% (311; 428)
+ 35205: >>>>>   1.817673000e+00 >=   1.485982333e+00  18.2% (336; 431)
Time used: 60.2 secs.  Memory used: 33.7 Mb.
+ 40385: mip =   1.817673000e+00 >=   1.491327455e+00  18.0% (340; 482)
+ 44260: mip =   1.817673000e+00 >=   1.495687126e+00  17.7% (373; 488)
+ 47797: mip =   1.817673000e+00 >=   1.501631000e+00  17.4% (401; 492)
+ 51374: mip =   1.817673000e+00 >=   1.506522855e+00  17.1% (424; 497)
+ 54789: mip =   1.817673000e+00 >=   1.511782000e+00  16.8% (452; 508)
+ 59403: mip =   1.817673000e+00 >=   1.511782000e+00  16.8% (481; 514)
+ 61884: mip =   1.817673000e+00 >=   1.511782000e+00  16.8% (509; 520)
+ 67188: mip =   1.817673000e+00 >=   1.511782000e+00  16.8% (548; 528)
+ 71224: mip =   1.817673000e+00 >=   1.511782000e+00  16.8% (595; 541)
+ 75099: mip =   1.817673000e+00 >=   1.511782000e+00  16.8% (624; 550)
+ 80012: mip =   1.817673000e+00 >=   1.511782000e+00  16.8% (657; 563)
+ 85006: mip =   1.817673000e+00 >=   1.511782000e+00  16.8% (687; 572)
Time used: 120.3 secs.  Memory used: 50.9 Mb.
+ 90351: mip =   1.817673000e+00 >=   1.511782000e+00  16.8% (721; 580)
+ 96088: mip =   1.817673000e+00 >=   1.511782000e+00  16.8% (750; 591)
+100106: mip =   1.817673000e+00 >=   1.511782000e+00  16.8% (789; 598)
+103095: mip =   1.817673000e+00 >=   1.511782000e+00  16.8% (826; 603)
+105030: mip =   1.817673000e+00 >=   1.511782000e+00  16.8% (850; 606)
+105891: >>>>>   1.511782000e+00 >=   1.511782000e+00 < 0.1% (869; 607)
+105891: mip =   1.511782000e+00 >=     tree is empty   0.0% (0; 2519)
INTEGER OPTIMAL SOLUTION FOUND
Time used:   145.4 secs
Memory used: 61.5 Mb (64435121 bytes)
Writing MIP solution to '/tmp/tmppckj7lao.glpk.raw'...
38697 lines were written

Results:

E = 1.511782 mA
C = 72.0 points
C ~= 28.8 km^2

Minimum Epsilon for this instance = 9
Maximum Epsilon for this instance = 98
Current Epsilon = 72

Instance Maximum Epsilon Preprocessing Time: 0.0022885799407958984 s

Time in solver (for this epsilon): 145.50875759124756 s
Elapsed time (for this epsilon): 146.17049884796143 s


Total elapsed time since execution of first epsilon: 3122.1119141578674 s


Updated solution vectors:
sol_E = [0.611782,1.061782,1.061782,1.061782,1.061782,1.511782,1.511782,1.511782]
sol_C = [12.0,28.0,50.0,42.0,50.0,54.0,64.0,72.0]
sol_eps = [9,18,27,36,45,54,63,72]
